33D32945 STP File, STP Format Version 1.0

SECTION Comment
Name    "i160-042"
Creator "Cees Duin"
Remark  "Incidence graph"
END

SECTION Graph
Nodes 160
Edges 2544
E 1 10 194
E 1 11 206
E 1 14 188
E 1 15 200
E 1 17 195
E 1 21 193
E 1 24 192
E 1 31 205
E 1 33 192
E 1 36 199
E 1 39 192
E 1 41 195
E 1 42 189
E 1 45 200
E 1 48 204
E 1 50 195
E 1 53 203
E 1 60 193
E 1 63 203
E 1 70 192
E 1 71 197
E 1 77 198
E 1 79 193
E 1 81 207
E 1 84 204
E 1 89 202
E 1 104 201
E 1 108 192
E 1 120 212
E 1 121 199
E 1 124 201
E 1 125 207
E 1 128 200
E 1 129 206
E 1 131 205
E 1 134 196
E 1 141 200
E 1 146 202
E 1 147 202
E 1 150 199
E 1 157 195
E 1 158 198
E 2 3 303
E 2 13 194
E 2 17 200
E 2 21 203
E 2 25 193
E 2 26 209
E 2 30 192
E 2 58 205
E 2 63 203
E 2 70 201
E 2 77 207
E 2 80 202
E 2 84 203
E 2 86 194
E 2 89 203
E 2 92 196
E 2 101 204
E 2 104 201
E 2 106 198
E 2 111 197
E 2 115 200
E 2 116 205
E 2 127 194
E 2 128 197
E 2 131 199
E 2 137 206
E 2 139 199
E 2 140 205
E 2 142 187
E 2 143 201
E 2 144 205
E 2 154 197
E 2 156 208
E 3 4 300
E 3 6 304
E 3 11 204
E 3 14 207
E 3 18 203
E 3 21 200
E 3 25 196
E 3 26 205
E 3 31 200
E 3 32 203
E 3 36 201
E 3 41 191
E 3 43 197
E 3 44 195
E 3 47 203
E 3 51 197
E 3 52 196
E 3 63 198
E 3 72 202
E 3 78 192
E 3 82 195
E 3 83 203
E 3 87 195
E 3 101 209
E 3 106 201
E 3 125 206
E 3 126 202
E 3 133 197
E 3 140 197
E 3 154 204
E 3 155 200
E 3 157 193
E 4 13 198
E 4 17 198
E 4 30 203
E 4 31 199
E 4 35 196
E 4 36 204
E 4 38 202
E 4 59 198
E 4 63 199
E 4 67 189
E 4 82 203
E 4 84 207
E 4 90 189
E 4 108 197
E 4 111 197
E 4 138 201
E 4 139 187
E 4 140 190
E 4 142 201
E 4 149 196
E 4 152 196
E 4 153 191
E 4 160 192
E 5 7 287
E 5 12 201
E 5 13 202
E 5 18 193
E 5 22 198
E 5 23 191
E 5 31 204
E 5 32 206
E 5 34 206
E 5 35 196
E 5 41 204
E 5 43 196
E 5 45 204
E 5 47 201
E 5 51 197
E 5 54 198
E 5 55 201
E 5 61 198
E 5 64 207
E 5 75 204
E 5 80 209
E 5 85 195
E 5 88 200
E 5 89 200
E 5 91 205
E 5 101 200
E 5 106 195
E 5 109 199
E 5 116 197
E 5 120 202
E 5 124 197
E 5 138 189
E 5 143 198
E 5 153 199
E 5 158 198
E 5 160 207
E 6 8 197
E 6 9 194
E 6 13 202
E 6 15 204
E 6 18 202
E 6 20 196
E 6 23 202
E 6 27 208
E 6 32 194
E 6 33 207
E 6 34 195
E 6 35 196
E 6 39 208
E 6 42 192
E 6 47 205
E 6 52 205
E 6 57 197
E 6 59 204
E 6 64 204
E 6 66 196
E 6 78 196
E 6 89 199
E 6 97 205
E 6 99 205
E 6 104 195
E 6 106 198
E 6 127 202
E 6 130 198
E 6 135 197
E 6 136 201
E 6 137 200
E 6 142 198
E 6 152 204
E 6 158 198
E 7 9 198
E 7 10 201
E 7 12 201
E 7 15 203
E 7 17 199
E 7 18 201
E 7 25 197
E 7 28 198
E 7 29 199
E 7 33 200
E 7 34 196
E 7 35 203
E 7 40 189
E 7 44 204
E 7 45 200
E 7 46 193
E 7 54 189
E 7 55 191
E 7 58 191
E 7 66 203
E 7 80 203
E 7 82 207
E 7 84 198
E 7 86 199
E 7 92 201
E 7 95 197
E 7 99 192
E 7 101 197
E 7 107 189
E 7 108 203
E 7 110 206
E 7 120 200
E 7 121 202
E 7 122 195
E 7 142 208
E 7 147 202
E 7 151 193
E 7 154 198
E 7 157 209
E 7 159 201
E 8 21 105
E 8 25 106
E 8 28 105
E 8 33 99
E 8 54 109
E 8 55 98
E 8 60 95
E 8 70 95
E 8 71 102
E 8 78 96
E 8 79 91
E 8 83 101
E 8 88 94
E 8 89 94
E 8 100 102
E 8 101 98
E 8 102 111
E 8 116 105
E 8 119 107
E 8 122 106
E 8 127 92
E 8 139 100
E 8 140 102
E 8 154 97
E 9 11 104
E 9 13 98
E 9 22 97
E 9 23 98
E 9 24 103
E 9 31 94
E 9 33 106
E 9 35 103
E 9 36 100
E 9 45 104
E 9 49 100
E 9 59 103
E 9 63 91
E 9 65 96
E 9 69 104
E 9 72 101
E 9 80 106
E 9 88 103
E 9 100 106
E 9 110 97
E 9 113 101
E 9 118 100
E 9 119 102
E 9 120 100
E 9 121 103
E 9 124 106
E 9 128 99
E 9 129 102
E 9 135 101
E 9 137 89
E 9 141 103
E 9 145 104
E 9 148 104
E 10 14 102
E 10 20 100
E 10 21 97
E 10 29 91
E 10 30 96
E 10 36 109
E 10 44 94
E 10 49 105
E 10 53 103
E 10 54 93
E 10 55 109
E 10 56 94
E 10 59 97
E 10 62 92
E 10 64 99
E 10 69 105
E 10 77 105
E 10 79 100
E 10 81 100
E 10 83 108
E 10 99 96
E 10 100 98
E 10 103 100
E 10 104 103
E 10 109 107
E 10 110 97
E 10 112 98
E 10 114 94
E 10 126 99
E 10 128 103
E 10 132 104
E 10 134 105
E 10 138 99
E 10 141 100
E 10 142 103
E 10 143 105
E 10 149 103
E 11 15 97
E 11 16 98
E 11 17 100
E 11 33 95
E 11 34 103
E 11 38 94
E 11 39 102
E 11 41 109
E 11 43 98
E 11 65 95
E 11 75 106
E 11 78 90
E 11 84 106
E 11 86 99
E 11 87 103
E 11 88 100
E 11 89 92
E 11 101 100
E 11 105 100
E 11 106 94
E 11 108 96
E 11 117 102
E 11 120 93
E 11 121 91
E 11 123 97
E 11 125 97
E 11 126 95
E 11 128 98
E 11 129 103
E 11 130 93
E 11 132 103
E 11 147 102
E 11 151 104
E 11 156 103
E 12 20 96
E 12 26 97
E 12 32 101
E 12 34 97
E 12 36 100
E 12 47 94
E 12 59 98
E 12 60 99
E 12 70 105
E 12 74 94
E 12 75 107
E 12 79 91
E 12 88 100
E 12 89 96
E 12 92 99
E 12 133 95
E 12 135 100
E 12 147 97
E 13 19 103
E 13 36 107
E 13 43 97
E 13 51 89
E 13 52 104
E 13 61 105
E 13 67 102
E 13 68 91
E 13 69 98
E 13 70 99
E 13 73 97
E 13 83 98
E 13 100 104
E 13 106 104
E 13 108 106
E 13 109 106
E 13 118 88
E 13 138 105
E 13 139 95
E 13 141 98
E 13 145 100
E 13 147 101
E 13 148 101
E 13 150 108
E 13 152 100
E 13 157 93
E 14 27 101
E 14 28 91
E 14 29 92
E 14 30 101
E 14 34 96
E 14 37 99
E 14 39 87
E 14 41 96
E 14 43 99
E 14 49 97
E 14 59 95
E 14 60 99
E 14 77 105
E 14 82 95
E 14 94 93
E 14 105 96
E 14 106 97
E 14 111 108
E 14 115 97
E 14 117 108
E 14 119 91
E 14 123 108
E 14 133 104
E 14 143 98
E 14 145 100
E 14 148 107
E 14 152 109
E 14 157 101
E 15 16 92
E 15 17 98
E 15 21 92
E 15 28 99
E 15 32 101
E 15 36 100
E 15 38 103
E 15 39 95
E 15 49 98
E 15 52 109
E 15 57 90
E 15 61 99
E 15 65 103
E 15 67 96
E 15 85 103
E 15 86 95
E 15 91 100
E 15 94 102
E 15 98 109
E 15 102 98
E 15 106 101
E 15 111 99
E 15 112 90
E 15 114 97
E 15 115 94
E 15 121 97
E 15 125 87
E 15 129 98
E 15 130 104
E 15 131 95
E 15 134 98
E 15 136 99
E 15 143 108
E 15 144 99
E 15 145 103
E 15 146 103
E 15 148 96
E 15 156 105
E 15 158 103
E 16 20 105
E 16 23 104
E 16 24 100
E 16 32 95
E 16 34 99
E 16 35 93
E 16 41 99
E 16 49 102
E 16 57 98
E 16 62 100
E 16 68 99
E 16 69 97
E 16 73 94
E 16 76 103
E 16 77 107
E 16 81 101
E 16 82 91
E 16 84 105
E 16 89 119
E 16 90 115
E 16 93 99
E 16 96 98
E 16 101 103
E 16 103 96
E 16 109 95
E 16 116 93
E 16 129 103
E 16 131 101
E 16 132 106
E 16 139 106
E 16 153 100
E 16 155 100
E 16 158 101
E 17 23 98
E 17 24 106
E 17 26 109
E 17 27 94
E 17 30 88
E 17 31 96
E 17 32 104
E 17 41 99
E 17 46 93
E 17 47 92
E 17 48 106
E 17 51 90
E 17 52 104
E 17 53 98
E 17 58 102
E 17 67 102
E 17 69 93
E 17 74 100
E 17 75 94
E 17 76 102
E 17 80 108
E 17 83 95
E 17 87 97
E 17 95 107
E 17 100 105
E 17 101 97
E 17 115 101
E 17 119 103
E 17 120 98
E 17 127 98
E 17 132 101
E 17 133 94
E 17 134 93
E 17 136 102
E 17 142 105
E 17 154 106
E 18 22 103
E 18 25 98
E 18 26 98
E 18 28 99
E 18 30 100
E 18 34 96
E 18 51 96
E 18 53 89
E 18 73 98
E 18 80 100
E 18 85 98
E 18 88 96
E 18 90 109
E 18 93 108
E 18 101 99
E 18 113 100
E 18 114 105
E 18 118 96
E 18 119 113
E 18 122 97
E 18 128 98
E 18 145 106
E 18 156 105
E 19 23 94
E 19 24 93
E 19 31 95
E 19 32 96
E 19 37 105
E 19 43 90
E 19 47 95
E 19 48 98
E 19 54 101
E 19 55 101
E 19 77 104
E 19 92 100
E 19 96 98
E 19 119 91
E 19 123 108
E 19 129 92
E 19 131 96
E 19 135 112
E 19 141 105
E 19 144 104
E 19 145 98
E 19 149 99
E 20 29 103
E 20 50 97
E 20 55 103
E 20 63 105
E 20 66 100
E 20 67 102
E 20 69 96
E 20 71 101
E 20 76 94
E 20 85 108
E 20 95 98
E 20 99 101
E 20 102 93
E 20 107 105
E 20 108 94
E 20 114 94
E 20 115 103
E 20 117 106
E 20 120 102
E 20 122 104
E 20 123 101
E 20 125 101
E 20 130 103
E 20 148 106
E 20 151 101
E 20 156 92
E 21 34 98
E 21 36 103
E 21 37 106
E 21 52 104
E 21 53 93
E 21 60 109
E 21 61 102
E 21 64 100
E 21 67 105
E 21 70 91
E 21 72 100
E 21 74 101
E 21 76 107
E 21 78 96
E 21 79 102
E 21 82 100
E 21 83 98
E 21 86 93
E 21 99 99
E 21 103 91
E 21 112 98
E 21 115 103
E 21 117 102
E 21 120 95
E 21 122 105
E 21 125 96
E 21 133 105
E 21 136 104
E 21 138 96
E 21 139 97
E 21 140 90
E 21 142 98
E 21 154 90
E 22 24 105
E 22 27 94
E 22 31 97
E 22 34 103
E 22 37 99
E 22 46 97
E 22 52 94
E 22 59 100
E 22 62 98
E 22 66 100
E 22 74 93
E 22 88 95
E 22 94 100
E 22 102 104
E 22 120 99
E 22 125 103
E 22 126 106
E 22 132 105
E 22 141 109
E 22 142 97
E 22 156 90
E 22 158 103
E 23 24 97
E 23 30 97
E 23 39 101
E 23 44 102
E 23 45 102
E 23 51 99
E 23 52 102
E 23 56 90
E 23 58 102
E 23 61 106
E 23 63 96
E 23 65 101
E 23 66 90
E 23 85 106
E 23 106 104
E 23 114 92
E 23 115 104
E 23 117 97
E 23 118 105
E 23 124 108
E 23 125 95
E 23 126 96
E 23 134 103
E 23 138 105
E 23 141 110
E 23 142 90
E 23 151 104
E 23 158 96
E 23 159 96
E 24 34 104
E 24 38 102
E 24 43 97
E 24 52 99
E 24 56 98
E 24 61 101
E 24 68 100
E 24 81 98
E 24 83 97
E 24 89 94
E 24 90 100
E 24 98 108
E 24 99 109
E 24 101 94
E 24 104 96
E 24 108 107
E 24 119 105
E 24 123 97
E 24 137 92
E 24 140 101
E 24 142 89
E 24 147 101
E 24 149 106
E 24 154 101
E 25 26 102
E 25 29 102
E 25 51 96
E 25 57 90
E 25 71 104
E 25 76 94
E 25 84 85
E 25 85 109
E 25 89 101
E 25 94 93
E 25 98 94
E 25 101 98
E 25 103 105
E 25 105 109
E 25 109 103
E 25 117 95
E 25 128 104
E 25 129 108
E 25 136 95
E 25 138 107
E 25 141 102
E 25 151 108
E 25 154 102
E 25 160 100
E 26 27 92
E 26 34 99
E 26 37 97
E 26 44 92
E 26 49 96
E 26 52 101
E 26 57 96
E 26 72 93
E 26 74 105
E 26 75 93
E 26 76 97
E 26 89 98
E 26 91 101
E 26 92 100
E 26 93 109
E 26 96 92
E 26 98 107
E 26 101 105
E 26 106 100
E 26 107 91
E 26 111 103
E 26 118 102
E 26 120 98
E 26 127 95
E 26 131 98
E 26 141 102
E 26 143 98
E 26 146 101
E 26 148 95
E 26 150 95
E 27 32 96
E 27 33 99
E 27 38 97
E 27 43 97
E 27 45 95
E 27 58 90
E 27 62 96
E 27 72 104
E 27 84 94
E 27 87 94
E 27 92 101
E 27 95 101
E 27 99 99
E 27 100 103
E 27 101 99
E 27 105 101
E 27 106 104
E 27 111 102
E 27 113 101
E 27 117 93
E 27 119 100
E 27 128 97
E 27 149 103
E 27 151 100
E 27 153 106
E 28 30 105
E 28 34 100
E 28 38 103
E 28 46 101
E 28 53 102
E 28 54 103
E 28 56 107
E 28 68 92
E 28 70 100
E 28 79 107
E 28 82 100
E 28 89 105
E 28 101 101
E 28 103 98
E 28 109 101
E 28 110 108
E 28 118 100
E 28 128 102
E 28 131 95
E 28 133 95
E 28 135 98
E 28 136 100
E 28 153 113
E 28 154 95
E 28 157 103
E 29 33 97
E 29 34 91
E 29 46 96
E 29 48 99
E 29 49 100
E 29 54 101
E 29 58 97
E 29 69 94
E 29 92 99
E 29 94 97
E 29 95 109
E 29 97 92
E 29 98 94
E 29 100 99
E 29 102 104
E 29 111 97
E 29 117 108
E 29 118 100
E 29 119 95
E 29 120 94
E 29 148 97
E 29 149 105
E 30 40 100
E 30 42 96
E 30 43 101
E 30 47 97
E 30 51 106
E 30 53 102
E 30 56 106
E 30 69 104
E 30 77 103
E 30 78 95
E 30 81 97
E 30 82 104
E 30 86 101
E 30 87 102
E 30 94 102
E 30 95 103
E 30 108 96
E 30 109 103
E 30 110 105
E 30 115 103
E 30 119 102
E 30 132 102
E 30 133 102
E 30 141 99
E 30 150 100
E 30 151 96
E 30 155 97
E 31 33 92
E 31 34 96
E 31 36 102
E 31 43 96
E 31 53 108
E 31 56 103
E 31 59 99
E 31 62 103
E 31 63 101
E 31 64 109
E 31 67 94
E 31 68 98
E 31 78 105
E 31 88 98
E 31 96 99
E 31 100 99
E 31 101 110
E 31 113 100
E 31 114 97
E 31 125 99
E 31 126 91
E 31 127 91
E 31 137 94
E 31 138 106
E 31 145 100
E 31 148 108
E 31 149 99
E 31 156 100
E 31 157 93
E 31 160 101
E 32 34 110
E 32 42 99
E 32 55 94
E 32 58 96
E 32 60 97
E 32 65 99
E 32 74 92
E 32 75 100
E 32 76 99
E 32 77 93
E 32 80 93
E 32 83 95
E 32 93 101
E 32 98 93
E 32 99 102
E 32 102 95
E 32 103 105
E 32 107 99
E 32 109 92
E 32 118 98
E 32 119 100
E 32 121 96
E 32 124 93
E 32 126 107
E 32 141 99
E 32 156 98
E 32 157 100
E 32 160 98
E 33 34 103
E 33 35 96
E 33 36 100
E 33 43 100
E 33 44 82
E 33 51 93
E 33 59 104
E 33 63 93
E 33 65 91
E 33 81 90
E 33 93 95
E 33 96 100
E 33 97 99
E 33 98 100
E 33 99 100
E 33 106 88
E 33 112 98
E 33 115 97
E 33 118 106
E 33 125 105
E 33 133 97
E 33 136 99
E 33 137 98
E 33 143 92
E 33 147 101
E 33 156 103
E 33 157 108
E 33 158 101
E 34 36 101
E 34 38 101
E 34 41 94
E 34 43 96
E 34 45 91
E 34 46 107
E 34 48 107
E 34 60 99
E 34 64 104
E 34 66 99
E 34 69 95
E 34 70 96
E 34 74 89
E 34 81 103
E 34 83 94
E 34 84 116
E 34 86 90
E 34 99 99
E 34 105 103
E 34 107 94
E 34 110 99
E 34 112 98
E 34 121 100
E 34 122 99
E 34 123 93
E 34 128 99
E 34 129 94
E 34 133 104
E 34 134 106
E 34 148 101
E 34 149 92
E 34 150 98
E 34 152 109
E 34 158 85
E 35 38 103
E 35 49 94
E 35 56 102
E 35 61 98
E 35 85 104
E 35 103 95
E 35 104 99
E 35 105 108
E 35 106 102
E 35 107 101
E 35 111 92
E 35 113 102
E 35 119 96
E 35 121 100
E 35 128 101
E 35 133 88
E 35 137 103
E 35 144 102
E 35 154 100
E 35 156 101
E 35 159 105
E 36 39 103
E 36 42 101
E 36 51 102
E 36 56 97
E 36 64 97
E 36 70 106
E 36 77 97
E 36 81 98
E 36 87 100
E 36 91 99
E 36 95 98
E 36 98 101
E 36 99 102
E 36 100 105
E 36 103 98
E 36 110 98
E 36 118 91
E 36 122 94
E 36 126 97
E 36 131 98
E 36 140 94
E 36 145 101
E 36 148 100
E 36 152 100
E 36 153 98
E 37 38 98
E 37 44 90
E 37 51 100
E 37 52 95
E 37 56 98
E 37 66 99
E 37 69 102
E 37 74 104
E 37 75 100
E 37 92 105
E 37 95 95
E 37 103 103
E 37 104 98
E 37 106 93
E 37 111 96
E 37 115 97
E 37 117 103
E 37 118 106
E 37 122 92
E 37 123 95
E 37 126 109
E 37 131 101
E 37 136 110
E 37 139 99
E 37 143 98
E 37 155 99
E 37 157 100
E 38 42 94
E 38 50 105
E 38 54 95
E 38 55 95
E 38 70 110
E 38 71 98
E 38 81 104
E 38 89 96
E 38 92 101
E 38 98 95
E 38 109 96
E 38 111 93
E 38 114 101
E 38 115 93
E 38 116 101
E 38 120 98
E 38 123 102
E 38 128 96
E 38 135 112
E 38 137 100
E 38 143 94
E 38 146 102
E 38 148 103
E 38 150 102
E 39 49 99
E 39 50 102
E 39 55 109
E 39 60 96
E 39 65 95
E 39 69 95
E 39 75 109
E 39 76 106
E 39 77 99
E 39 81 98
E 39 83 101
E 39 89 100
E 39 93 105
E 39 97 108
E 39 99 104
E 39 100 96
E 39 104 94
E 39 106 99
E 39 109 98
E 39 111 105
E 39 115 99
E 39 117 105
E 39 134 99
E 39 139 97
E 39 144 97
E 39 145 103
E 40 53 105
E 40 58 103
E 40 62 98
E 40 65 100
E 40 66 97
E 40 69 96
E 40 75 103
E 40 77 103
E 40 80 97
E 40 87 87
E 40 93 98
E 40 102 102
E 40 109 103
E 40 110 107
E 40 111 101
E 40 117 100
E 40 120 102
E 40 124 97
E 40 125 105
E 40 130 99
E 40 131 106
E 40 135 101
E 40 138 105
E 40 147 94
E 40 153 103
E 40 157 106
E 41 44 93
E 41 52 99
E 41 53 107
E 41 55 108
E 41 61 105
E 41 66 104
E 41 71 94
E 41 76 97
E 41 78 108
E 41 79 101
E 41 87 97
E 41 88 91
E 41 95 103
E 41 97 97
E 41 112 103
E 41 116 106
E 41 127 98
E 41 129 93
E 41 133 98
E 41 134 95
E 41 137 90
E 41 145 106
E 41 146 101
E 41 154 104
E 41 155 96
E 41 158 108
E 42 45 106
E 42 49 97
E 42 53 91
E 42 55 98
E 42 64 97
E 42 72 106
E 42 75 105
E 42 82 94
E 42 94 99
E 42 96 98
E 42 98 99
E 42 100 99
E 42 103 102
E 42 105 94
E 42 106 95
E 42 114 95
E 42 123 101
E 42 126 104
E 42 130 93
E 42 131 99
E 42 137 91
E 42 150 95
E 42 154 96
E 42 156 105
E 43 49 98
E 43 60 96
E 43 64 103
E 43 71 97
E 43 74 93
E 43 77 103
E 43 89 107
E 43 92 90
E 43 95 101
E 43 96 95
E 43 100 98
E 43 107 95
E 43 110 104
E 43 115 103
E 43 116 101
E 43 125 100
E 43 136 98
E 43 141 102
E 43 143 103
E 43 154 98
E 43 155 103
E 43 159 103
E 43 160 99
E 44 51 95
E 44 52 87
E 44 55 90
E 44 81 104
E 44 85 95
E 44 87 98
E 44 90 100
E 44 96 93
E 44 100 97
E 44 105 98
E 44 106 97
E 44 112 100
E 44 115 110
E 44 120 107
E 44 128 99
E 44 130 89
E 44 138 93
E 44 142 89
E 44 143 95
E 44 144 104
E 44 145 99
E 44 146 97
E 44 150 102
E 44 159 95
E 45 56 98
E 45 57 105
E 45 59 103
E 45 60 98
E 45 67 106
E 45 88 92
E 45 90 97
E 45 92 106
E 45 99 95
E 45 113 100
E 45 121 97
E 45 123 87
E 45 129 103
E 45 130 96
E 45 132 104
E 45 133 97
E 45 137 100
E 45 144 101
E 45 152 98
E 46 52 108
E 46 54 99
E 46 61 99
E 46 62 109
E 46 64 101
E 46 65 99
E 46 71 105
E 46 108 97
E 46 111 96
E 46 118 101
E 46 119 97
E 46 125 102
E 46 145 95
E 46 148 97
E 46 156 107
E 47 49 97
E 47 50 99
E 47 62 107
E 47 70 90
E 47 77 107
E 47 94 107
E 47 97 101
E 47 98 101
E 47 102 102
E 47 103 93
E 47 104 96
E 47 108 99
E 47 111 97
E 47 112 94
E 47 120 102
E 47 122 105
E 47 128 97
E 47 130 98
E 47 132 91
E 47 136 96
E 47 141 96
E 47 146 107
E 47 151 100
E 47 156 108
E 47 157 106
E 47 159 95
E 48 49 109
E 48 62 101
E 48 67 104
E 48 75 100
E 48 76 104
E 48 78 95
E 48 95 104
E 48 101 100
E 48 116 100
E 48 120 95
E 48 122 112
E 48 125 105
E 48 130 96
E 48 131 98
E 48 149 99
E 48 157 102
E 49 53 101
E 49 59 94
E 49 62 101
E 49 68 94
E 49 76 95
E 49 79 104
E 49 90 98
E 49 91 89
E 49 102 97
E 49 104 93
E 49 115 107
E 49 118 98
E 49 120 107
E 49 125 97
E 49 126 95
E 49 131 99
E 49 154 105
E 49 155 101
E 49 159 88
E 50 53 99
E 50 60 97
E 50 63 99
E 50 68 93
E 50 69 96
E 50 70 98
E 50 75 100
E 50 77 99
E 50 78 91
E 50 80 104
E 50 89 104
E 50 97 99
E 50 102 103
E 50 106 98
E 50 107 100
E 50 110 94
E 50 113 98
E 50 117 104
E 50 120 104
E 50 121 94
E 50 133 99
E 50 139 109
E 50 140 96
E 50 141 96
E 50 142 102
E 50 146 103
E 50 148 100
E 50 152 100
E 51 52 98
E 51 54 98
E 51 56 103
E 51 62 89
E 51 82 97
E 51 97 94
E 51 98 99
E 51 103 97
E 51 111 98
E 51 113 105
E 51 115 99
E 51 118 93
E 51 122 86
E 51 124 98
E 51 127 99
E 51 132 97
E 51 147 97
E 51 148 106
E 51 152 102
E 51 155 97
E 51 157 105
E 51 160 105
E 52 57 105
E 52 64 99
E 52 74 92
E 52 79 105
E 52 80 101
E 52 83 99
E 52 84 99
E 52 87 101
E 52 99 96
E 52 102 98
E 52 105 99
E 52 112 101
E 52 116 100
E 52 123 100
E 52 130 103
E 52 132 106
E 52 133 106
E 52 135 103
E 52 140 100
E 52 152 105
E 52 154 102
E 52 157 103
E 52 160 97
E 53 65 99
E 53 74 95
E 53 77 97
E 53 80 98
E 53 84 94
E 53 91 100
E 53 101 97
E 53 113 101
E 53 117 103
E 53 119 103
E 53 127 99
E 53 128 108
E 53 131 104
E 53 132 101
E 53 134 93
E 53 135 105
E 53 136 103
E 53 137 107
E 53 138 104
E 53 144 89
E 53 145 104
E 53 151 100
E 54 68 98
E 54 73 94
E 54 77 99
E 54 81 88
E 54 83 113
E 54 93 96
E 54 94 89
E 54 96 101
E 54 98 96
E 54 103 106
E 54 108 103
E 54 109 100
E 54 112 105
E 54 113 104
E 54 114 98
E 54 116 100
E 54 120 95
E 54 121 99
E 54 129 97
E 54 131 94
E 54 133 105
E 54 140 99
E 54 142 100
E 54 146 100
E 54 156 96
E 54 157 87
E 54 159 95
E 55 65 97
E 55 66 103
E 55 80 103
E 55 81 110
E 55 99 105
E 55 101 97
E 55 106 103
E 55 115 99
E 55 116 101
E 55 119 95
E 55 120 93
E 55 121 95
E 55 130 92
E 55 132 106
E 55 142 93
E 55 145 97
E 56 62 96
E 56 65 104
E 56 68 102
E 56 72 86
E 56 74 98
E 56 79 97
E 56 82 111
E 56 83 93
E 56 91 94
E 56 93 102
E 56 95 93
E 56 100 105
E 56 101 97
E 56 105 97
E 56 109 105
E 56 121 97
E 56 137 115
E 56 138 94
E 56 142 93
E 56 147 94
E 56 151 106
E 56 156 93
E 57 59 88
E 57 62 99
E 57 65 106
E 57 67 101
E 57 76 98
E 57 78 108
E 57 84 96
E 57 90 96
E 57 93 96
E 57 98 97
E 57 100 95
E 57 102 98
E 57 130 100
E 57 133 92
E 57 145 101
E 57 148 97
E 57 151 103
E 57 155 97
E 58 65 101
E 58 69 99
E 58 72 93
E 58 78 104
E 58 81 103
E 58 87 95
E 58 93 100
E 58 97 98
E 58 98 90
E 58 118 105
E 58 125 102
E 58 136 97
E 58 137 93
E 58 138 97
E 58 140 98
E 58 145 101
E 58 146 100
E 59 60 98
E 59 63 97
E 59 64 97
E 59 65 98
E 59 68 97
E 59 76 98
E 59 79 104
E 59 81 98
E 59 89 106
E 59 90 96
E 59 97 97
E 59 98 100
E 59 99 96
E 59 103 92
E 59 104 100
E 59 122 95
E 59 148 95
E 59 151 95
E 59 152 99
E 59 156 105
E 59 160 100
E 60 81 99
E 60 82 108
E 60 84 102
E 60 86 99
E 60 90 98
E 60 92 99
E 60 94 97
E 60 103 99
E 60 143 102
E 60 145 104
E 60 147 102
E 60 148 102
E 60 154 108
E 60 155 95
E 60 157 106
E 61 69 104
E 61 72 92
E 61 74 106
E 61 75 94
E 61 81 102
E 61 82 94
E 61 90 94
E 61 94 102
E 61 96 98
E 61 97 95
E 61 99 98
E 61 104 89
E 61 114 103
E 61 123 92
E 61 127 103
E 61 131 98
E 61 133 101
E 61 134 102
E 61 154 103
E 61 155 93
E 62 66 109
E 62 67 101
E 62 70 102
E 62 74 101
E 62 88 96
E 62 95 100
E 62 104 96
E 62 106 93
E 62 110 99
E 62 111 98
E 62 120 99
E 62 122 101
E 62 123 101
E 62 135 97
E 62 155 100
E 63 69 94
E 63 70 103
E 63 81 106
E 63 83 101
E 63 85 100
E 63 87 111
E 63 93 104
E 63 98 97
E 63 120 103
E 63 123 97
E 63 124 104
E 63 128 91
E 63 135 103
E 63 136 96
E 63 138 105
E 63 150 95
E 63 156 100
E 63 159 107
E 64 66 97
E 64 83 105
E 64 85 94
E 64 87 93
E 64 89 102
E 64 94 95
E 64 102 98
E 64 104 99
E 64 105 104
E 64 112 90
E 64 114 100
E 64 130 105
E 64 131 99
E 64 134 105
E 64 137 96
E 64 140 97
E 64 141 98
E 64 143 100
E 64 160 109
E 65 70 101
E 65 72 108
E 65 73 96
E 65 86 99
E 65 91 106
E 65 108 99
E 65 112 91
E 65 118 102
E 65 119 96
E 65 120 101
E 65 121 103
E 65 126 98
E 65 131 95
E 65 133 92
E 65 140 96
E 65 141 98
E 65 148 101
E 65 150 100
E 65 152 93
E 65 155 99
E 65 156 108
E 66 69 103
E 66 89 98
E 66 90 97
E 66 91 104
E 66 104 95
E 66 119 104
E 66 122 104
E 66 125 101
E 66 129 102
E 66 138 101
E 66 147 101
E 66 148 92
E 66 153 101
E 66 154 98
E 66 158 106
E 67 74 107
E 67 76 103
E 67 85 102
E 67 94 106
E 67 104 101
E 67 111 98
E 67 115 101
E 67 116 104
E 67 118 98
E 67 121 101
E 67 138 101
E 67 139 102
E 67 141 98
E 67 152 97
E 67 157 106
E 67 158 90
E 68 81 100
E 68 88 100
E 68 98 103
E 68 103 93
E 68 110 101
E 68 116 106
E 68 127 99
E 68 136 100
E 68 144 110
E 68 146 101
E 68 151 104
E 68 152 108
E 68 159 95
E 69 73 94
E 69 92 101
E 69 94 99
E 69 99 95
E 69 100 97
E 69 102 99
E 69 109 98
E 69 115 104
E 69 135 99
E 69 157 101
E 69 160 106
E 70 73 79
E 70 77 105
E 70 79 102
E 70 83 106
E 70 99 85
E 70 102 98
E 70 111 97
E 70 113 95
E 70 117 98
E 70 120 94
E 70 130 96
E 70 131 100
E 71 72 99
E 71 73 98
E 71 83 98
E 71 88 107
E 71 97 93
E 71 103 96
E 71 107 94
E 71 111 100
E 71 112 96
E 71 118 98
E 71 123 98
E 71 126 101
E 71 131 93
E 71 136 100
E 71 139 101
E 71 140 102
E 71 141 102
E 71 142 94
E 71 143 107
E 71 154 101
E 72 77 97
E 72 81 99
E 72 82 93
E 72 88 94
E 72 90 108
E 72 92 91
E 72 100 92
E 72 128 100
E 72 129 99
E 72 133 91
E 72 135 96
E 72 142 96
E 72 145 99
E 72 147 94
E 72 160 99
E 73 78 108
E 73 79 108
E 73 80 94
E 73 93 88
E 73 96 104
E 73 113 99
E 73 121 100
E 73 124 102
E 73 125 102
E 73 128 99
E 73 138 104
E 73 139 98
E 73 142 94
E 73 145 98
E 73 151 102
E 73 154 100
E 73 155 94
E 74 77 100
E 74 87 97
E 74 91 101
E 74 94 99
E 74 100 94
E 74 104 91
E 74 115 95
E 74 116 100
E 74 118 91
E 74 120 105
E 74 127 94
E 74 130 105
E 74 137 103
E 74 138 94
E 74 141 97
E 74 143 95
E 74 146 106
E 74 147 93
E 74 159 105
E 75 76 95
E 75 86 96
E 75 94 100
E 75 98 107
E 75 99 108
E 75 100 89
E 75 103 99
E 75 107 104
E 75 119 100
E 75 122 94
E 75 123 94
E 75 127 104
E 75 128 108
E 75 129 98
E 75 131 97
E 75 138 97
E 75 142 99
E 75 149 107
E 75 157 102
E 76 77 102
E 76 81 99
E 76 84 102
E 76 86 103
E 76 87 99
E 76 89 98
E 76 93 99
E 76 96 100
E 76 100 103
E 76 106 98
E 76 125 90
E 76 132 99
E 76 134 103
E 76 141 101
E 76 149 101
E 76 158 93
E 76 160 96
E 77 78 91
E 77 79 105
E 77 85 104
E 77 88 97
E 77 92 101
E 77 93 100
E 77 96 99
E 77 100 96
E 77 105 107
E 77 109 107
E 77 119 97
E 77 124 102
E 77 131 98
E 77 133 98
E 77 149 105
E 77 151 96
E 78 79 95
E 78 95 109
E 78 99 105
E 78 100 96
E 78 107 102
E 78 112 107
E 78 127 98
E 78 139 95
E 78 145 98
E 78 149 100
E 78 154 101
E 78 155 93
E 78 159 108
E 79 82 110
E 79 83 92
E 79 104 102
E 79 105 100
E 79 106 87
E 79 111 96
E 79 113 104
E 79 117 102
E 79 120 97
E 79 124 94
E 79 125 98
E 79 128 97
E 79 142 101
E 79 143 100
E 79 151 102
E 79 157 97
E 79 158 101
E 79 160 93
E 80 81 101
E 80 83 106
E 80 85 97
E 80 88 100
E 80 96 99
E 80 97 105
E 80 102 111
E 80 108 99
E 80 109 106
E 80 111 105
E 80 114 92
E 80 116 106
E 80 117 102
E 80 119 101
E 80 120 95
E 80 122 98
E 80 137 103
E 80 138 96
E 80 140 95
E 80 143 106
E 80 145 114
E 80 147 93
E 80 156 100
E 81 83 90
E 81 86 92
E 81 96 103
E 81 105 101
E 81 108 100
E 81 111 102
E 81 112 104
E 81 113 104
E 81 118 95
E 81 147 93
E 81 159 96
E 82 91 102
E 82 101 104
E 82 107 96
E 82 111 94
E 82 112 107
E 82 113 95
E 82 114 102
E 82 127 94
E 82 134 105
E 82 136 111
E 82 145 104
E 83 84 99
E 83 91 96
E 83 101 101
E 83 103 94
E 83 104 109
E 83 105 100
E 83 106 105
E 83 107 99
E 83 121 102
E 83 123 91
E 83 137 93
E 83 138 101
E 83 150 100
E 83 155 99
E 83 157 93
E 84 88 105
E 84 91 97
E 84 94 97
E 84 96 103
E 84 108 97
E 84 112 101
E 84 113 100
E 84 114 89
E 84 117 97
E 84 123 97
E 84 128 102
E 84 132 91
E 84 138 101
E 84 144 103
E 84 147 98
E 84 151 88
E 85 92 111
E 85 95 98
E 85 102 103
E 85 103 99
E 85 107 101
E 85 110 96
E 85 119 94
E 85 122 101
E 85 126 100
E 85 127 97
E 85 134 102
E 85 144 108
E 85 151 114
E 85 155 97
E 85 158 102
E 85 159 102
E 85 160 90
E 86 100 104
E 86 105 97
E 86 112 100
E 86 116 104
E 86 125 102
E 86 135 107
E 86 139 96
E 86 142 96
E 86 145 105
E 86 160 98
E 87 89 101
E 87 94 99
E 87 97 96
E 87 100 94
E 87 107 99
E 87 110 95
E 87 112 101
E 87 113 99
E 87 115 108
E 87 122 104
E 87 124 95
E 87 130 96
E 87 134 89
E 87 139 89
E 87 140 104
E 87 141 91
E 87 142 101
E 87 146 100
E 87 147 96
E 87 148 103
E 87 150 96
E 88 89 97
E 88 92 106
E 88 107 105
E 88 108 90
E 88 109 97
E 88 117 101
E 88 125 97
E 88 127 91
E 88 135 107
E 88 151 94
E 88 154 105
E 88 155 101
E 88 156 95
E 88 157 93
E 88 160 101
E 89 91 100
E 89 93 104
E 89 104 101
E 89 106 106
E 89 110 102
E 89 113 96
E 89 119 103
E 89 127 105
E 89 134 107
E 89 136 97
E 89 137 99
E 89 139 105
E 89 141 96
E 89 152 97
E 89 156 97
E 90 91 98
E 90 94 91
E 90 98 97
E 90 99 89
E 90 101 103
E 90 102 101
E 90 111 99
E 90 116 103
E 90 126 99
E 90 127 104
E 90 150 96
E 90 151 98
E 90 154 93
E 90 156 96
E 91 94 97
E 91 95 92
E 91 99 103
E 91 100 106
E 91 101 100
E 91 102 103
E 91 105 90
E 91 108 103
E 91 113 103
E 91 116 90
E 91 119 111
E 91 124 103
E 91 125 100
E 91 128 102
E 91 129 102
E 91 130 110
E 91 132 99
E 91 137 106
E 91 141 102
E 91 145 97
E 91 153 96
E 92 99 96
E 92 106 94
E 92 111 92
E 92 113 100
E 92 126 111
E 92 128 97
E 92 146 99
E 92 151 111
E 92 152 109
E 92 153 93
E 92 154 95
E 92 160 93
E 93 97 93
E 93 105 102
E 93 120 106
E 93 126 108
E 93 128 100
E 93 129 99
E 93 131 92
E 93 150 94
E 93 157 86
E 94 101 101
E 94 107 97
E 94 108 95
E 94 114 98
E 94 119 99
E 94 120 96
E 94 124 91
E 94 129 97
E 94 132 107
E 94 133 103
E 94 136 102
E 94 141 103
E 94 152 95
E 94 153 106
E 94 157 95
E 94 158 104
E 95 97 95
E 95 102 96
E 95 114 103
E 95 117 113
E 95 118 106
E 95 123 106
E 95 124 93
E 95 127 108
E 95 137 93
E 95 140 99
E 95 149 109
E 95 158 97
E 95 159 95
E 96 102 107
E 96 106 97
E 96 112 94
E 96 118 98
E 96 122 94
E 96 126 102
E 96 129 99
E 96 132 108
E 96 133 95
E 96 139 94
E 96 150 103
E 96 154 104
E 96 158 99
E 97 99 100
E 97 104 108
E 97 108 110
E 97 109 101
E 97 112 108
E 97 116 103
E 97 117 97
E 97 129 108
E 97 132 95
E 97 134 104
E 97 136 96
E 97 142 104
E 97 145 93
E 97 149 102
E 97 153 92
E 97 155 97
E 97 160 100
E 98 104 97
E 98 108 95
E 98 115 97
E 98 122 96
E 98 128 101
E 98 129 97
E 98 141 101
E 98 149 99
E 98 154 104
E 98 155 95
E 98 159 97
E 99 101 107
E 99 105 97
E 99 111 96
E 99 112 98
E 99 122 100
E 99 124 100
E 99 129 96
E 99 130 90
E 99 135 99
E 99 138 99
E 99 160 101
E 100 101 90
E 100 105 104
E 100 127 95
E 100 133 98
E 100 140 104
E 100 144 99
E 100 146 102
E 100 150 104
E 100 152 105
E 100 156 102
E 101 104 98
E 101 106 93
E 101 109 100
E 101 110 95
E 101 111 113
E 101 113 105
E 101 125 104
E 101 127 103
E 101 132 106
E 101 136 95
E 101 137 96
E 101 140 108
E 101 146 102
E 101 147 99
E 101 152 101
E 101 153 106
E 101 157 95
E 101 160 110
E 102 105 98
E 102 106 103
E 102 108 102
E 102 135 101
E 102 140 101
E 102 146 105
E 102 153 103
E 102 156 97
E 102 158 111
E 103 104 101
E 103 107 99
E 103 109 91
E 103 111 99
E 103 113 91
E 103 115 93
E 103 117 99
E 103 122 99
E 103 130 94
E 103 131 96
E 103 139 106
E 103 140 95
E 103 142 92
E 103 146 91
E 103 147 110
E 103 148 96
E 103 153 97
E 103 159 95
E 104 106 103
E 104 109 101
E 104 113 95
E 104 114 89
E 104 115 113
E 104 130 103
E 104 138 100
E 104 140 100
E 104 141 102
E 104 148 87
E 104 155 101
E 104 160 98
E 105 106 101
E 105 107 97
E 105 116 99
E 105 117 98
E 105 120 98
E 105 121 93
E 105 125 102
E 105 134 91
E 105 140 102
E 105 146 104
E 105 150 103
E 105 159 90
E 105 160 97
E 106 116 100
E 106 120 101
E 106 122 101
E 106 140 97
E 106 142 99
E 106 145 97
E 106 149 104
E 107 109 106
E 107 116 107
E 107 123 96
E 107 149 101
E 107 156 92
E 108 120 100
E 108 127 104
E 108 137 107
E 108 140 104
E 108 145 109
E 108 160 96
E 109 111 110
E 109 114 97
E 109 131 94
E 109 136 100
E 109 144 98
E 109 150 92
E 109 155 99
E 110 111 102
E 110 115 98
E 110 136 95
E 110 141 98
E 110 145 94
E 110 158 100
E 110 160 95
E 111 114 102
E 111 115 99
E 111 116 97
E 111 117 96
E 111 120 103
E 111 123 99
E 111 131 100
E 111 135 92
E 111 138 104
E 111 145 99
E 111 147 103
E 111 149 103
E 111 153 102
E 111 154 93
E 111 156 102
E 111 158 101
E 111 159 105
E 112 115 98
E 112 117 91
E 112 119 100
E 112 123 101
E 112 125 94
E 112 126 94
E 112 130 99
E 112 134 93
E 112 135 98
E 112 136 99
E 112 138 105
E 112 141 105
E 113 123 107
E 113 125 97
E 113 130 96
E 113 134 94
E 113 139 102
E 113 148 96
E 113 155 98
E 113 156 94
E 113 158 98
E 113 160 94
E 114 115 103
E 114 117 103
E 114 118 101
E 114 119 102
E 114 129 100
E 114 135 94
E 114 137 100
E 114 138 97
E 114 144 99
E 114 147 101
E 114 149 102
E 114 156 100
E 114 160 104
E 115 117 101
E 115 122 99
E 115 129 94
E 115 144 105
E 115 145 110
E 115 147 94
E 115 154 96
E 116 117 110
E 116 118 99
E 116 120 98
E 116 121 98
E 116 123 100
E 116 129 92
E 116 132 105
E 116 133 97
E 116 135 102
E 116 139 96
E 116 140 101
E 116 141 98
E 116 142 105
E 116 147 100
E 116 152 103
E 116 154 91
E 116 159 103
E 117 124 97
E 117 125 97
E 117 126 101
E 117 136 95
E 117 146 107
E 118 120 99
E 118 125 93
E 118 157 95
E 119 133 95
E 119 134 99
E 119 137 97
E 119 140 103
E 119 144 106
E 119 147 94
E 119 150 101
E 119 153 98
E 119 154 99
E 119 157 101
E 120 124 100
E 120 125 105
E 120 133 98
E 120 139 103
E 120 146 97
E 120 150 97
E 120 152 103
E 121 137 101
E 121 143 103
E 121 145 103
E 121 156 100
E 122 136 101
E 122 140 100
E 122 155 109
E 123 126 93
E 123 133 99
E 123 135 101
E 123 138 100
E 123 139 100
E 123 142 97
E 123 147 102
E 123 154 108
E 124 129 102
E 124 131 101
E 124 138 97
E 124 139 101
E 124 157 90
E 125 127 96
E 125 131 99
E 125 133 86
E 125 141 96
E 125 146 105
E 125 149 93
E 125 152 92
E 126 127 104
E 126 130 100
E 126 131 95
E 126 133 100
E 126 154 99
E 127 136 100
E 127 138 98
E 127 141 99
E 127 146 93
E 127 154 92
E 127 156 103
E 127 159 105
E 127 160 105
E 128 130 101
E 128 142 101
E 128 143 93
E 128 145 100
E 128 155 91
E 128 159 97
E 129 130 93
E 129 132 102
E 129 134 99
E 129 136 102
E 129 137 93
E 129 142 98
E 129 154 109
E 130 138 98
E 130 139 97
E 130 142 99
E 130 143 95
E 130 145 88
E 130 147 101
E 130 150 102
E 130 154 94
E 131 137 100
E 131 139 97
E 131 140 101
E 131 141 97
E 131 144 95
E 131 150 97
E 131 155 98
E 131 157 97
E 131 158 98
E 131 159 100
E 132 141 99
E 132 146 94
E 132 149 94
E 133 134 101
E 133 138 100
E 133 145 96
E 133 158 101
E 133 159 111
E 133 160 100
E 134 142 102
E 134 147 100
E 134 148 100
E 134 149 99
E 134 150 95
E 134 151 93
E 134 160 91
E 135 137 104
E 135 140 92
E 135 141 105
E 135 156 93
E 135 157 105
E 135 158 94
E 136 146 95
E 136 150 103
E 136 154 109
E 137 140 90
E 137 141 103
E 137 145 102
E 137 151 93
E 137 152 108
E 138 139 90
E 138 142 93
E 138 143 97
E 138 145 102
E 138 146 93
E 138 147 98
E 138 149 96
E 138 150 96
E 138 157 94
E 139 144 104
E 139 146 99
E 139 147 98
E 139 150 104
E 139 151 96
E 140 144 107
E 140 148 101
E 140 151 89
E 140 154 96
E 140 158 95
E 141 142 99
E 141 145 97
E 141 148 100
E 141 159 104
E 141 160 96
E 142 145 94
E 142 147 102
E 142 148 101
E 142 155 92
E 142 158 98
E 142 159 100
E 143 152 100
E 144 151 97
E 144 152 92
E 144 157 111
E 144 159 95
E 145 152 100
E 145 153 100
E 146 148 102
E 147 148 88
E 148 152 88
E 148 156 100
E 149 152 97
E 149 157 97
E 149 160 99
E 150 152 95
E 150 154 100
E 150 158 96
E 150 159 100
E 151 152 95
E 152 153 97
E 154 158 105
E 155 157 98
E 158 159 97
END

SECTION Terminals
Terminals 7
T 1
T 2
T 3
T 4
T 5
T 6
T 7
END

EOF
